proyfinal/src/viki/013/andrea/andrea-localstore/experimentInOfficeAgust.take6/worker_9/ca77253c-20ac-4ac8-8560-a9e0cfde3256.als.cnf.out
Reading from standard input... Use '--help' for help.
============================[ Problem Statistics ]=============================
|                                                                             |
|  Number of variables:         87638                                         |
|  Number of clauses:          161767                                         |
|  Parse time:                   0.03 s                                       |
|                                                                             |
============================[ Search Statistics ]==============================
| Conflicts |          ORIGINAL         |          LEARNT          | Progress |
|           |    Vars  Clauses Literals |    Limit  Clauses Lit/Cl |          |
===============================================================================
|       100 |   63392   109112   271936 |    40007      100      9 | 27.666 % |
|       250 |   63392   109112   271936 |    44008      250     21 | 27.666 % |
|       475 |   63392   109112   271936 |    48409      475     32 | 27.666 % |
|       812 |   63392   109112   271936 |    53250      812     44 | 27.666 % |
|      1318 |   63355   109038   271765 |    58575     1316     48 | 27.708 % |
|      2077 |   63355   108962   271586 |    64432     2075     55 | 27.708 % |
|      3216 |   63355   108962   271586 |    70876     3214     51 | 27.708 % |
|      4924 |   63329   108819   271274 |    77963     4479     56 | 27.738 % |
|      7486 |   63293   108671   270932 |    85760     7037     64 | 27.779 % |
|     11330 |   63276   108603   270771 |    94336    10879     66 | 27.798 % |
===============================================================================
restarts              : 62
conflicts             : 15609          (9180 /sec)
decisions             : 54180          (0.00 % random) (31864 /sec)
propagations          : 18734490       (11017955 /sec)
conflict literals     : 1012609        (49.14 % deleted)
Memory used           : 31.97 MB
CPU time              : 1.70036 s

INDETERMINATE
